/* Objective function */
min: - 0.0054fpdi - 0.0054fpdo + 0.05apdi + 0.05apdo + 0.0002pi + 0.0002po - 0.5fsi - 0.5fso;

apdi = 0.0 hi + 0.0 li + 5.39187 ri + 8.46032 ci + -1.00867 si + 0.0 ti + 0.04671 fTempIi + 0.05353 ami + -87.76098;
asi = 0.0 hi + 0.0 li + -0.0 ri + 0.1 ci + 0.0 si + 0.0 ti + 0.0 fTempIi + 0.00062 ami + -0.15286;
aTempOi = 0.0 hi + -0.0 li + 0.13688 ri + -0.38844 ci + -0.03392 si + -0.0 ti + 0.87698 fTempIi + -0.00272 ami + 5.93586;
fpdi = 0.0 hi + -0.0 li + 37.55942 ri + -674.28889 ci + -0.06016 si + -0.0 ti + -2.36726 fTempIi + 0.00729 ami + 1045.55922;
fsi = 0.0 hi + -0.0 li + -9e-05 ri + -0.83653 ci + 3e-05 si + -0.0 ti + 0.0009 fTempIi + -0.0 ami + 2.48917;
fTempOi = 0.0 hi + 0.0 li + -0.13145 ri + 0.3791 ci + 0.03183 si + 0.0 ti + 0.21644 fTempIi + -0.00364 ami + 11.27409;
pi = 0.0 hi + -0.0 li + 53.625 ri + -18.77778 ci + -4.71429 si + -0.0 ti + -0.0 fTempIi + 0.0 ami + 256.11905;

apdo = 0.0 ho + 0.0 lo + 5.50794 ro + 9.52381 co + -1.01888 so + 0.0 to + 0.05714 fTempIo + 0.05489 amo + -91.17893;
aso = 0.0 ho + 0.0 lo + -0.0 ro + 0.1 co + 0.0 so + 0.0 to + 0.0 fTempIo + 0.00062 amo + -0.15286;
aTempOo = 0.0 ho + 0.0 lo + -0.14915 ro + 0.40587 co + 0.03624 so + 0.0 to + 0.85868 fTempIo + 0.00285 amo + -2.32628;
fpdo = 0.0 ho + -0.0 lo + 36.8999 ro + -670.36746 co + 0.06381 so + -0.0 to + -2.33871 fTempIo + -0.00782 amo + 1042.98735;
fso = 0.0 ho + -0.0 lo + 6e-05 ro + -0.83802 co + -2e-05 so + -0.0 to + 0.0005 fTempIo + 0.0 amo + 2.49714;
fTempOo = 0.0 ho + -0.0 lo + 0.14325 ro + -0.39206 co + -0.03397 so + -0.0 to + 0.22485 fTempIo + 0.0039 amo + 11.60507;
po = 0.0 ho + -0.0 lo + 53.625 ro + -18.77778 co + -4.71429 so + -0.0 to + -0.0 fTempIo + 0.0 amo + 256.11905;

/* Variable bounds */
aTempOi > 18.6;
1 =r6i + r8i + r10i + r12i + r14i;
ri =6r6i + 8r8i + 10r10i + 12r12i + 14r14i;
1 =s25i + s30i + s40i;
si =25s25i + 30s30i + 40s40i;
ti = 1;
apdi > 100;
apdi < 300;
asi > 0;
asi < 3;
aTempOi > 5;
aTempOi < 25;
fpdi > 100;
fpdi < 300;
fsi > 0;
fsi < 1.25;
fTempOi > 5;
fTempOi < 25;
pi > 0;
ri > 10;
ri < 14;
ci > 1;
ci < 3;
si > 25;
si < 60;
ti > 1;
ti < 3;
fTempIi > 5;
fTempIi < 25;

/* aTempOo < 11.4; */
1 =r6o + r8o + r10o + r12o + r14o;
ro =6r6o + 8r8o + 10r10o + 12r12o + 14r14o;
1 =s25o + s30o + s40o;
so =25s25o + 30s30o + 40s40o;
to = 1;
apdo > 100;
apdo < 300;
aso > 0;
aso < 3;
aTempOo > 5;
aTempOo < 25;
fpdo > 100;
fpdo < 300;
fso > 0;
fso < 1.25;
fTempOo > 5;
fTempOo < 25;
po > 0;
ro > 10;
ro < 14;
co > 1;
co < 3;
so > 25;
so < 60;
to > 1;
to < 3;
fTempIo > 5;
fTempIo < 25;
int hi,li,si,ti,ci,ri,ami;
int ho,lo,so,to,co,ro,amo;
bin s25i,s30i,s40i,s50i,s60i,r6i,r8i,r10i,r12i,r14i;
bin s25o,s30o,s40o,s50o,s60o,r6o,r8o,r10o,r12o,r14o;
